Optimal - objective value 3.00000000
      0 x_0_0                    1                       1
      1 x_1_0                    0                       0
      2 x_1_1                    1                       1
      3 x_2_0                    0                       0
      4 x_2_1                    0                       0
      5 x_2_2                    1                       1
